%chk=D:\Desktop\1.chk
# hf/3-21g geom=connectivity

Title Card Required

0 1




